SCIP Status        : problem creation / modification
Total Time         :       0.15
  reading          :       0.15
Original Problem   :
  Problem name     : main4.zpl
  Variables        : 13545 (13545 binary, 0 integer, 0 implicit integer, 0 continuous)
  Constraints      : 0 initial, 13845 maximal
  Objective        : minimize, 13545 non-zeros (abs.min = 0.00051, abs.max = 5700)
